N = 510;
M = 1226;
Edge_Start = [1, 1, 2, 3, 3, 4, 5, 5, 7, 8, 9, 9, 10, 11, 11, 13, 13, 14, 15, 16, 17, 17, 18, 19, 19, 20, 21, 21, 23, 24, 25, 25, 26, 27, 27, 28, 29, 29, 30, 31, 32, 33, 33, 35, 35, 36, 37, 38, 39, 39, 40, 41, 42, 43, 43, 44, 45, 46, 47, 48, 49, 49, 50, 51, 51, 52, 53, 54, 55, 55, 57, 58, 59, 59, 60, 61, 61, 62, 63, 64, 64, 65, 66, 66, 68, 68, 69, 70, 70, 71, 72, 73, 74, 74, 75, 76, 77, 78, 78, 79, 80, 81, 82, 82, 84, 84, 85, 86, 86, 88, 88, 89, 90, 90, 92, 93, 94, 97, 97, 98, 99, 100, 101, 101, 102, 103, 103, 104, 105, 105, 106, 107, 107, 108, 109, 109, 111, 112, 113, 113, 114, 115, 115, 116, 117, 118, 119, 119, 121, 121, 122, 123, 123, 124, 125, 126, 127, 128, 128, 129, 130, 130, 131, 132, 132, 133, 134, 135, 136, 137, 138, 138, 139, 140, 140, 141, 142, 142, 143, 144, 144, 145, 146, 146, 147, 148, 149, 150, 150, 151, 152, 153, 154, 154, 155, 156, 156, 157, 158, 158, 160, 161, 161, 162, 163, 163, 164, 165, 166, 167, 168, 169, 169, 170, 171, 172, 173, 174, 175, 175, 176, 177, 178, 179, 179, 180, 181, 181, 183, 183, 184, 185, 187, 187, 189, 190, 192, 192, 193, 194, 194, 195, 197, 198, 198, 200, 200, 201, 202, 202, 204, 204, 205, 206, 206, 207, 208, 209, 210, 210, 211, 212, 212, 214, 214, 215, 216, 216, 218, 219, 220, 221, 222, 222, 224, 225, 227, 227, 229, 229, 231, 231, 232, 233, 234, 235, 235, 237, 238, 239, 239, 240, 241, 241, 242, 243, 243, 244, 245, 246, 247, 248, 249, 249, 251, 251, 252, 253, 253, 254, 255, 256, 256, 257, 258, 258, 259, 260, 261, 262, 263, 264, 265, 266, 266, 267, 268, 269, 270, 270, 271, 272, 272, 274, 274, 276, 277, 278, 279, 280, 280, 281, 282, 282, 283, 284, 284, 285, 286, 286, 288, 289, 289, 290, 291, 292, 293, 294, 295, 296, 297, 297, 298, 299, 300, 301, 301, 303, 303, 304, 305, 305, 306, 307, 308, 309, 309, 310, 311, 311, 313, 313, 314, 315, 315, 316, 317, 317, 318, 319, 320, 320, 321, 322, 322, 323, 324, 324, 325, 326, 327, 328, 328, 329, 330, 330, 331, 332, 332, 333, 334, 334, 335, 336, 336, 337, 338, 339, 340, 341, 342, 342, 344, 344, 346, 346, 347, 348, 348, 349, 350, 350, 352, 353, 353, 354, 355, 355, 356, 357, 358, 359, 360, 361, 361, 363, 363, 364, 365, 365, 366, 367, 367, 368, 369, 371, 372, 373, 374, 376, 377, 378, 379, 379, 380, 381, 381, 382, 383, 384, 384, 385, 386, 386, 387, 388, 388, 389, 390, 392, 392, 393, 394, 394, 395, 396, 396, 397, 398, 398, 399, 400, 401, 402, 403, 404, 405, 406, 406, 407, 408, 409, 410, 410, 411, 412, 413, 414, 414, 416, 417, 418, 419, 419, 420, 421, 421, 422, 423, 423, 424, 425, 426, 427, 427, 428, 430, 431, 431, 432, 433, 433, 434, 435, 436, 437, 438, 439, 441, 443, 443, 444, 445, 445, 446, 448, 449, 450, 450, 451, 452, 452, 454, 454, 455, 456, 456, 457, 458, 459, 460, 460, 461, 462, 462, 463, 464, 465, 466, 466, 468, 468, 469, 470, 470, 471, 472, 472, 474, 474, 475, 476, 476, 477, 478, 480, 481, 482, 483, 484, 486, 487, 488, 489, 490, 491, 492, 493, 494, 495, 497, 498, 499, 500, 501, 502, 503, 504, 505, 506, 507, 508, 509, 2, 32, 3, 4, 34, 5, 6, 36, 8, 9, 10, 40, 11, 12, 42, 14, 44, 15, 16, 17, 18, 48, 19, 20, 50, 21, 22, 52, 54, 25, 26, 56, 27, 28, 58, 29, 30, 60, 31, 62, 33, 34, 65, 36, 67, 37, 69, 39, 40, 71, 41, 42, 43, 44, 75, 45, 77, 47, 79, 49, 50, 81, 51, 52, 83, 53, 54, 55, 56, 87, 89, 59, 60, 91, 61, 62, 93, 63, 95, 65, 96, 66, 67, 98, 69, 100, 70, 71, 102, 72, 73, 74, 75, 106, 76, 108, 78, 79, 110, 80, 112, 82, 83, 114, 85, 116, 86, 87, 118, 89, 120, 90, 91, 122, 124, 94, 95, 98, 129, 99, 100, 101, 102, 133, 103, 104, 135, 105, 106, 137, 107, 108, 139, 109, 110, 141, 143, 113, 114, 145, 115, 116, 147, 117, 149, 119, 120, 151, 122, 153, 123, 124, 155, 125, 157, 127, 159, 129, 160, 130, 131, 162, 132, 133, 164, 134, 166, 136, 168, 138, 139, 170, 140, 141, 172, 142, 143, 174, 144, 145, 176, 146, 147, 178, 148, 149, 150, 151, 182, 152, 184, 154, 155, 186, 156, 157, 188, 158, 159, 190, 161, 162, 193, 163, 164, 195, 165, 166, 167, 168, 169, 170, 201, 171, 203, 173, 205, 175, 176, 207, 177, 209, 179, 180, 211, 181, 182, 213, 184, 215, 185, 186, 188, 219, 221, 191, 193, 224, 194, 195, 226, 196, 198, 199, 230, 201, 232, 202, 203, 234, 205, 236, 206, 207, 238, 208, 240, 210, 211, 242, 212, 213, 244, 215, 246, 216, 217, 248, 219, 220, 252, 222, 223, 254, 225, 226, 228, 259, 230, 261, 232, 263, 233, 234, 235, 236, 267, 238, 239, 240, 271, 241, 242, 273, 243, 244, 275, 245, 246, 247, 279, 249, 250, 281, 252, 283, 253, 254, 285, 255, 287, 257, 288, 258, 259, 290, 260, 292, 262, 263, 264, 296, 266, 267, 298, 268, 300, 270, 271, 302, 272, 273, 304, 275, 306, 308, 278, 279, 280, 281, 312, 282, 283, 314, 284, 285, 316, 286, 287, 318, 289, 290, 321, 291, 292, 293, 325, 295, 296, 297, 298, 329, 299, 331, 301, 302, 333, 304, 335, 305, 306, 337, 307, 339, 309, 310, 341, 311, 312, 343, 314, 345, 315, 316, 347, 317, 318, 349, 319, 351, 321, 352, 322, 323, 354, 324, 325, 356, 326, 327, 328, 329, 360, 330, 331, 362, 332, 333, 364, 334, 335, 366, 336, 337, 368, 338, 370, 340, 341, 342, 343, 374, 345, 376, 347, 378, 348, 349, 380, 350, 351, 382, 353, 354, 385, 355, 356, 387, 357, 358, 359, 391, 361, 362, 393, 364, 395, 365, 366, 397, 367, 368, 399, 369, 401, 403, 373, 374, 375, 377, 409, 379, 380, 411, 381, 382, 413, 383, 415, 385, 416, 386, 387, 418, 388, 389, 420, 390, 422, 393, 424, 394, 395, 426, 396, 397, 428, 398, 399, 430, 400, 401, 402, 403, 404, 436, 406, 407, 438, 408, 409, 410, 411, 442, 412, 444, 414, 415, 446, 417, 449, 419, 420, 451, 421, 422, 453, 423, 424, 455, 425, 426, 427, 428, 459, 429, 431, 432, 463, 433, 434, 465, 435, 467, 437, 438, 439, 440, 442, 444, 475, 445, 446, 477, 447, 480, 450, 451, 482, 452, 453, 484, 455, 486, 456, 457, 488, 458, 490, 460, 461, 492, 462, 463, 494, 464, 496, 466, 467, 498, 469, 500, 470, 471, 502, 472, 473, 504, 475, 506, 476, 477, 508, 478, 479, 481, 482, 483, 484, 485, 487, 488, 489, 490, 491, 492, 493, 494, 495, 496, 498, 499, 500, 501, 502, 503, 504, 505, 506, 507, 508, 509, 510];
Edge_End = [2, 32, 3, 4, 34, 5, 6, 36, 8, 9, 10, 40, 11, 12, 42, 14, 44, 15, 16, 17, 18, 48, 19, 20, 50, 21, 22, 52, 54, 25, 26, 56, 27, 28, 58, 29, 30, 60, 31, 62, 33, 34, 65, 36, 67, 37, 69, 39, 40, 71, 41, 42, 43, 44, 75, 45, 77, 47, 79, 49, 50, 81, 51, 52, 83, 53, 54, 55, 56, 87, 89, 59, 60, 91, 61, 62, 93, 63, 95, 65, 96, 66, 67, 98, 69, 100, 70, 71, 102, 72, 73, 74, 75, 106, 76, 108, 78, 79, 110, 80, 112, 82, 83, 114, 85, 116, 86, 87, 118, 89, 120, 90, 91, 122, 124, 94, 95, 98, 129, 99, 100, 101, 102, 133, 103, 104, 135, 105, 106, 137, 107, 108, 139, 109, 110, 141, 143, 113, 114, 145, 115, 116, 147, 117, 149, 119, 120, 151, 122, 153, 123, 124, 155, 125, 157, 127, 159, 129, 160, 130, 131, 162, 132, 133, 164, 134, 166, 136, 168, 138, 139, 170, 140, 141, 172, 142, 143, 174, 144, 145, 176, 146, 147, 178, 148, 149, 150, 151, 182, 152, 184, 154, 155, 186, 156, 157, 188, 158, 159, 190, 161, 162, 193, 163, 164, 195, 165, 166, 167, 168, 169, 170, 201, 171, 203, 173, 205, 175, 176, 207, 177, 209, 179, 180, 211, 181, 182, 213, 184, 215, 185, 186, 188, 219, 221, 191, 193, 224, 194, 195, 226, 196, 198, 199, 230, 201, 232, 202, 203, 234, 205, 236, 206, 207, 238, 208, 240, 210, 211, 242, 212, 213, 244, 215, 246, 216, 217, 248, 219, 220, 252, 222, 223, 254, 225, 226, 228, 259, 230, 261, 232, 263, 233, 234, 235, 236, 267, 238, 239, 240, 271, 241, 242, 273, 243, 244, 275, 245, 246, 247, 279, 249, 250, 281, 252, 283, 253, 254, 285, 255, 287, 257, 288, 258, 259, 290, 260, 292, 262, 263, 264, 296, 266, 267, 298, 268, 300, 270, 271, 302, 272, 273, 304, 275, 306, 308, 278, 279, 280, 281, 312, 282, 283, 314, 284, 285, 316, 286, 287, 318, 289, 290, 321, 291, 292, 293, 325, 295, 296, 297, 298, 329, 299, 331, 301, 302, 333, 304, 335, 305, 306, 337, 307, 339, 309, 310, 341, 311, 312, 343, 314, 345, 315, 316, 347, 317, 318, 349, 319, 351, 321, 352, 322, 323, 354, 324, 325, 356, 326, 327, 328, 329, 360, 330, 331, 362, 332, 333, 364, 334, 335, 366, 336, 337, 368, 338, 370, 340, 341, 342, 343, 374, 345, 376, 347, 378, 348, 349, 380, 350, 351, 382, 353, 354, 385, 355, 356, 387, 357, 358, 359, 391, 361, 362, 393, 364, 395, 365, 366, 397, 367, 368, 399, 369, 401, 403, 373, 374, 375, 377, 409, 379, 380, 411, 381, 382, 413, 383, 415, 385, 416, 386, 387, 418, 388, 389, 420, 390, 422, 393, 424, 394, 395, 426, 396, 397, 428, 398, 399, 430, 400, 401, 402, 403, 404, 436, 406, 407, 438, 408, 409, 410, 411, 442, 412, 444, 414, 415, 446, 417, 449, 419, 420, 451, 421, 422, 453, 423, 424, 455, 425, 426, 427, 428, 459, 429, 431, 432, 463, 433, 434, 465, 435, 467, 437, 438, 439, 440, 442, 444, 475, 445, 446, 477, 447, 480, 450, 451, 482, 452, 453, 484, 455, 486, 456, 457, 488, 458, 490, 460, 461, 492, 462, 463, 494, 464, 496, 466, 467, 498, 469, 500, 470, 471, 502, 472, 473, 504, 475, 506, 476, 477, 508, 478, 479, 481, 482, 483, 484, 485, 487, 488, 489, 490, 491, 492, 493, 494, 495, 496, 498, 499, 500, 501, 502, 503, 504, 505, 506, 507, 508, 509, 510, 1, 1, 2, 3, 3, 4, 5, 5, 7, 8, 9, 9, 10, 11, 11, 13, 13, 14, 15, 16, 17, 17, 18, 19, 19, 20, 21, 21, 23, 24, 25, 25, 26, 27, 27, 28, 29, 29, 30, 31, 32, 33, 33, 35, 35, 36, 37, 38, 39, 39, 40, 41, 42, 43, 43, 44, 45, 46, 47, 48, 49, 49, 50, 51, 51, 52, 53, 54, 55, 55, 57, 58, 59, 59, 60, 61, 61, 62, 63, 64, 64, 65, 66, 66, 68, 68, 69, 70, 70, 71, 72, 73, 74, 74, 75, 76, 77, 78, 78, 79, 80, 81, 82, 82, 84, 84, 85, 86, 86, 88, 88, 89, 90, 90, 92, 93, 94, 97, 97, 98, 99, 100, 101, 101, 102, 103, 103, 104, 105, 105, 106, 107, 107, 108, 109, 109, 111, 112, 113, 113, 114, 115, 115, 116, 117, 118, 119, 119, 121, 121, 122, 123, 123, 124, 125, 126, 127, 128, 128, 129, 130, 130, 131, 132, 132, 133, 134, 135, 136, 137, 138, 138, 139, 140, 140, 141, 142, 142, 143, 144, 144, 145, 146, 146, 147, 148, 149, 150, 150, 151, 152, 153, 154, 154, 155, 156, 156, 157, 158, 158, 160, 161, 161, 162, 163, 163, 164, 165, 166, 167, 168, 169, 169, 170, 171, 172, 173, 174, 175, 175, 176, 177, 178, 179, 179, 180, 181, 181, 183, 183, 184, 185, 187, 187, 189, 190, 192, 192, 193, 194, 194, 195, 197, 198, 198, 200, 200, 201, 202, 202, 204, 204, 205, 206, 206, 207, 208, 209, 210, 210, 211, 212, 212, 214, 214, 215, 216, 216, 218, 219, 220, 221, 222, 222, 224, 225, 227, 227, 229, 229, 231, 231, 232, 233, 234, 235, 235, 237, 238, 239, 239, 240, 241, 241, 242, 243, 243, 244, 245, 246, 247, 248, 249, 249, 251, 251, 252, 253, 253, 254, 255, 256, 256, 257, 258, 258, 259, 260, 261, 262, 263, 264, 265, 266, 266, 267, 268, 269, 270, 270, 271, 272, 272, 274, 274, 276, 277, 278, 279, 280, 280, 281, 282, 282, 283, 284, 284, 285, 286, 286, 288, 289, 289, 290, 291, 292, 293, 294, 295, 296, 297, 297, 298, 299, 300, 301, 301, 303, 303, 304, 305, 305, 306, 307, 308, 309, 309, 310, 311, 311, 313, 313, 314, 315, 315, 316, 317, 317, 318, 319, 320, 320, 321, 322, 322, 323, 324, 324, 325, 326, 327, 328, 328, 329, 330, 330, 331, 332, 332, 333, 334, 334, 335, 336, 336, 337, 338, 339, 340, 341, 342, 342, 344, 344, 346, 346, 347, 348, 348, 349, 350, 350, 352, 353, 353, 354, 355, 355, 356, 357, 358, 359, 360, 361, 361, 363, 363, 364, 365, 365, 366, 367, 367, 368, 369, 371, 372, 373, 374, 376, 377, 378, 379, 379, 380, 381, 381, 382, 383, 384, 384, 385, 386, 386, 387, 388, 388, 389, 390, 392, 392, 393, 394, 394, 395, 396, 396, 397, 398, 398, 399, 400, 401, 402, 403, 404, 405, 406, 406, 407, 408, 409, 410, 410, 411, 412, 413, 414, 414, 416, 417, 418, 419, 419, 420, 421, 421, 422, 423, 423, 424, 425, 426, 427, 427, 428, 430, 431, 431, 432, 433, 433, 434, 435, 436, 437, 438, 439, 441, 443, 443, 444, 445, 445, 446, 448, 449, 450, 450, 451, 452, 452, 454, 454, 455, 456, 456, 457, 458, 459, 460, 460, 461, 462, 462, 463, 464, 465, 466, 466, 468, 468, 469, 470, 470, 471, 472, 472, 474, 474, 475, 476, 476, 477, 478, 480, 481, 482, 483, 484, 486, 487, 488, 489, 490, 491, 492, 493, 494, 495, 497, 498, 499, 500, 501, 502, 503, 504, 505, 506, 507, 508, 509];
L = [17, 9, 18, 8, 6, 4, 5, 8, 18, 4, 12, 14, 18, 9, 15, 16, 14, 19, 8, 19, 12, 18, 15, 11, 13, 6, 7, 16, 2, 11, 17, 18, 12, 12, 4, 19, 17, 16, 5, 13, 3, 16, 7, 1, 17, 18, 3, 18, 5, 14, 18, 15, 15, 6, 10, 18, 11, 17, 2, 8, 7, 16, 9, 11, 3, 4, 10, 6, 4, 12, 17, 11, 10, 3, 13, 4, 9, 17, 19, 10, 4, 13, 10, 13, 1, 19, 19, 12, 7, 8, 4, 5, 2, 15, 2, 5, 1, 3, 1, 15, 6, 10, 17, 10, 6, 7, 2, 9, 19, 8, 2, 15, 10, 9, 6, 11, 9, 8, 13, 9, 3, 6, 17, 11, 16, 7, 12, 11, 6, 10, 8, 6, 18, 1, 8, 11, 7, 6, 17, 8, 11, 7, 10, 16, 13, 16, 15, 13, 1, 5, 7, 9, 19, 5, 7, 11, 15, 4, 19, 3, 16, 8, 7, 14, 8, 19, 11, 10, 2, 13, 10, 16, 17, 15, 4, 1, 8, 6, 19, 19, 12, 16, 19, 13, 15, 14, 1, 17, 14, 4, 6, 13, 11, 17, 4, 17, 17, 14, 14, 19, 12, 16, 13, 8, 6, 16, 11, 2, 16, 8, 10, 15, 6, 8, 1, 1, 10, 7, 17, 1, 13, 4, 19, 4, 11, 16, 1, 9, 4, 2, 2, 1, 17, 17, 17, 13, 6, 7, 3, 7, 11, 15, 4, 2, 10, 4, 10, 11, 5, 19, 9, 11, 10, 11, 8, 13, 5, 17, 4, 8, 8, 6, 1, 12, 2, 8, 16, 14, 1, 15, 11, 14, 7, 18, 4, 5, 1, 16, 2, 2, 15, 15, 4, 15, 2, 12, 8, 16, 3, 10, 14, 14, 14, 17, 17, 5, 5, 10, 5, 7, 13, 6, 11, 14, 13, 8, 5, 11, 5, 14, 7, 3, 8, 18, 15, 2, 5, 1, 4, 7, 7, 12, 1, 7, 16, 16, 15, 15, 8, 14, 3, 11, 18, 7, 2, 3, 4, 3, 18, 6, 5, 10, 4, 10, 3, 5, 7, 14, 3, 13, 15, 8, 10, 17, 1, 3, 11, 1, 15, 1, 9, 2, 11, 5, 1, 6, 13, 17, 15, 19, 2, 17, 5, 14, 9, 2, 2, 4, 14, 19, 3, 4, 7, 14, 16, 7, 14, 1, 11, 8, 11, 17, 3, 3, 19, 13, 16, 3, 16, 12, 1, 4, 1, 16, 13, 15, 13, 14, 1, 1, 1, 12, 4, 11, 12, 11, 14, 5, 16, 12, 15, 18, 7, 1, 9, 11, 2, 18, 11, 13, 10, 1, 17, 13, 10, 11, 14, 8, 17, 3, 10, 14, 1, 1, 18, 11, 14, 13, 6, 16, 6, 6, 3, 1, 1, 14, 19, 13, 1, 11, 17, 8, 16, 1, 15, 17, 4, 19, 3, 6, 15, 10, 14, 8, 5, 1, 12, 19, 8, 18, 3, 8, 14, 16, 10, 15, 9, 5, 10, 16, 16, 15, 6, 11, 17, 15, 12, 10, 7, 13, 4, 6, 4, 15, 9, 6, 15, 19, 5, 12, 9, 5, 2, 11, 16, 9, 2, 10, 6, 18, 3, 13, 17, 11, 16, 10, 16, 11, 19, 8, 17, 18, 8, 7, 15, 14, 17, 13, 4, 19, 10, 1, 9, 18, 4, 14, 13, 13, 2, 9, 1, 5, 16, 17, 18, 1, 9, 15, 7, 11, 12, 1, 5, 13, 7, 11, 19, 8, 5, 16, 19, 5, 15, 15, 16, 18, 9, 4, 1, 10, 5, 10, 18, 8, 14, 1, 16, 10, 4, 3, 1, 3, 3, 7, 13, 4, 4, 8, 18, 8, 12, 9, 15, 10, 12, 1, 14, 1, 16, 1, 2, 17, 7, 17, 9, 18, 8, 6, 4, 5, 8, 18, 4, 12, 14, 18, 9, 15, 16, 14, 19, 8, 19, 12, 18, 15, 11, 13, 6, 7, 16, 2, 11, 17, 18, 12, 12, 4, 19, 17, 16, 5, 13, 3, 16, 7, 1, 17, 18, 3, 18, 5, 14, 18, 15, 15, 6, 10, 18, 11, 17, 2, 8, 7, 16, 9, 11, 3, 4, 10, 6, 4, 12, 17, 11, 10, 3, 13, 4, 9, 17, 19, 10, 4, 13, 10, 13, 1, 19, 19, 12, 7, 8, 4, 5, 2, 15, 2, 5, 1, 3, 1, 15, 6, 10, 17, 10, 6, 7, 2, 9, 19, 8, 2, 15, 10, 9, 6, 11, 9, 8, 13, 9, 3, 6, 17, 11, 16, 7, 12, 11, 6, 10, 8, 6, 18, 1, 8, 11, 7, 6, 17, 8, 11, 7, 10, 16, 13, 16, 15, 13, 1, 5, 7, 9, 19, 5, 7, 11, 15, 4, 19, 3, 16, 8, 7, 14, 8, 19, 11, 10, 2, 13, 10, 16, 17, 15, 4, 1, 8, 6, 19, 19, 12, 16, 19, 13, 15, 14, 1, 17, 14, 4, 6, 13, 11, 17, 4, 17, 17, 14, 14, 19, 12, 16, 13, 8, 6, 16, 11, 2, 16, 8, 10, 15, 6, 8, 1, 1, 10, 7, 17, 1, 13, 4, 19, 4, 11, 16, 1, 9, 4, 2, 2, 1, 17, 17, 17, 13, 6, 7, 3, 7, 11, 15, 4, 2, 10, 4, 10, 11, 5, 19, 9, 11, 10, 11, 8, 13, 5, 17, 4, 8, 8, 6, 1, 12, 2, 8, 16, 14, 1, 15, 11, 14, 7, 18, 4, 5, 1, 16, 2, 2, 15, 15, 4, 15, 2, 12, 8, 16, 3, 10, 14, 14, 14, 17, 17, 5, 5, 10, 5, 7, 13, 6, 11, 14, 13, 8, 5, 11, 5, 14, 7, 3, 8, 18, 15, 2, 5, 1, 4, 7, 7, 12, 1, 7, 16, 16, 15, 15, 8, 14, 3, 11, 18, 7, 2, 3, 4, 3, 18, 6, 5, 10, 4, 10, 3, 5, 7, 14, 3, 13, 15, 8, 10, 17, 1, 3, 11, 1, 15, 1, 9, 2, 11, 5, 1, 6, 13, 17, 15, 19, 2, 17, 5, 14, 9, 2, 2, 4, 14, 19, 3, 4, 7, 14, 16, 7, 14, 1, 11, 8, 11, 17, 3, 3, 19, 13, 16, 3, 16, 12, 1, 4, 1, 16, 13, 15, 13, 14, 1, 1, 1, 12, 4, 11, 12, 11, 14, 5, 16, 12, 15, 18, 7, 1, 9, 11, 2, 18, 11, 13, 10, 1, 17, 13, 10, 11, 14, 8, 17, 3, 10, 14, 1, 1, 18, 11, 14, 13, 6, 16, 6, 6, 3, 1, 1, 14, 19, 13, 1, 11, 17, 8, 16, 1, 15, 17, 4, 19, 3, 6, 15, 10, 14, 8, 5, 1, 12, 19, 8, 18, 3, 8, 14, 16, 10, 15, 9, 5, 10, 16, 16, 15, 6, 11, 17, 15, 12, 10, 7, 13, 4, 6, 4, 15, 9, 6, 15, 19, 5, 12, 9, 5, 2, 11, 16, 9, 2, 10, 6, 18, 3, 13, 17, 11, 16, 10, 16, 11, 19, 8, 17, 18, 8, 7, 15, 14, 17, 13, 4, 19, 10, 1, 9, 18, 4, 14, 13, 13, 2, 9, 1, 5, 16, 17, 18, 1, 9, 15, 7, 11, 12, 1, 5, 13, 7, 11, 19, 8, 5, 16, 19, 5, 15, 15, 16, 18, 9, 4, 1, 10, 5, 10, 18, 8, 14, 1, 16, 10, 4, 3, 1, 3, 3, 7, 13, 4, 4, 8, 18, 8, 12, 9, 15, 10, 12, 1, 14, 1, 16, 1, 2, 17, 7];
T = [17, 10, 16, 11, 3, 12, 1, 11, 17, 4, 14, 6, 23, 13, 13, 21, 12, 22, 11, 15, 21, 27, 17, 17, 10, 8, 13, 17, 3, 18, 14, 8, 11, 8, 1, 28, 16, 18, 8, 7, 1, 17, 8, 1, 9, 22, 1, 20, 8, 14, 16, 27, 6, 15, 6, 28, 12, 14, 1, 19, 4, 11, 7, 8, 2, 1, 22, 5, 8, 21, 15, 12, 21, 7, 8, 13, 11, 10, 23, 4, 10, 11, 1, 24, 7, 23, 20, 15, 11, 1, 4, 3, 4, 20, 1, 1, 11, 9, 5, 8, 7, 13, 10, 13, 5, 1, 1, 1, 18, 11, 1, 5, 5, 3, 9, 1, 9, 5, 7, 8, 1, 6, 14, 6, 15, 10, 10, 12, 2, 13, 16, 2, 14, 1, 6, 8, 19, 11, 14, 10, 15, 7, 14, 18, 20, 11, 15, 11, 3, 6, 7, 8, 19, 3, 6, 19, 11, 8, 24, 4, 8, 7, 14, 5, 8, 16, 2, 7, 7, 10, 16, 23, 10, 21, 1, 1, 9, 7, 10, 24, 10, 15, 16, 8, 13, 6, 4, 17, 15, 3, 1, 13, 8, 18, 6, 18, 17, 13, 14, 25, 12, 20, 19, 14, 3, 14, 9, 6, 15, 4, 13, 20, 1, 12, 1, 3, 19, 2, 24, 5, 16, 1, 24, 10, 16, 23, 1, 19, 9, 1, 5, 4, 21, 9, 1, 7, 7, 11, 6, 13, 12, 22, 7, 7, 11, 3, 7, 6, 5, 21, 12, 14, 18, 11, 9, 12, 8, 14, 5, 2, 8, 2, 1, 7, 1, 4, 16, 13, 1, 18, 5, 16, 3, 21, 4, 1, 2, 18, 2, 7, 7, 7, 7, 17, 6, 11, 6, 10, 9, 9, 20, 16, 19, 9, 14, 6, 1, 18, 17, 10, 17, 13, 16, 25, 10, 1, 2, 9, 2, 8, 9, 1, 1, 11, 20, 5, 12, 1, 4, 9, 9, 13, 1, 9, 14, 34, 21, 21, 10, 14, 1, 13, 17, 1, 1, 1, 2, 5, 23, 6, 1, 4, 8, 11, 5, 16, 9, 16, 1, 16, 7, 6, 11, 12, 10, 2, 5, 2, 24, 5, 6, 3, 4, 1, 3, 7, 12, 23, 12, 18, 1, 15, 7, 12, 9, 1, 1, 15, 22, 18, 11, 9, 4, 16, 10, 1, 16, 1, 3, 3, 5, 19, 1, 5, 22, 10, 13, 8, 19, 6, 13, 4, 1, 12, 12, 11, 1, 13, 1, 1, 1, 15, 1, 10, 5, 12, 15, 17, 26, 8, 24, 15, 1, 5, 7, 8, 1, 12, 11, 9, 2, 1, 12, 10, 18, 12, 7, 3, 16, 7, 8, 14, 1, 1, 17, 5, 13, 14, 6, 17, 1, 4, 3, 1, 12, 14, 18, 14, 1, 14, 19, 10, 17, 1, 15, 20, 7, 18, 1, 2, 13, 16, 18, 1, 8, 1, 19, 20, 1, 21, 9, 9, 15, 8, 17, 19, 7, 2, 15, 22, 15, 7, 3, 19, 18, 20, 15, 6, 6, 5, 1, 12, 1, 11, 4, 6, 15, 11, 1, 11, 5, 1, 1, 9, 9, 13, 1, 12, 6, 12, 1, 8, 14, 25, 21, 10, 17, 14, 12, 15, 15, 10, 4, 2, 14, 14, 21, 9, 1, 14, 1, 4, 10, 21, 1, 13, 14, 9, 5, 7, 6, 3, 17, 9, 18, 1, 5, 9, 10, 12, 1, 4, 4, 12, 9, 18, 26, 11, 10, 12, 14, 6, 12, 8, 16, 23, 1, 1, 4, 13, 5, 9, 28, 9, 22, 1, 15, 1, 2, 1, 6, 1, 1, 7, 15, 11, 5, 4, 18, 9, 7, 12, 17, 3, 11, 4, 9, 7, 11, 1, 1, 19, 1, 17, 10, 16, 11, 3, 12, 1, 11, 17, 4, 14, 6, 23, 13, 13, 21, 12, 22, 11, 15, 21, 27, 17, 17, 10, 8, 13, 17, 3, 18, 14, 8, 11, 8, 1, 28, 16, 18, 8, 7, 1, 17, 8, 1, 9, 22, 1, 20, 8, 14, 16, 27, 6, 15, 6, 28, 12, 14, 1, 19, 4, 11, 7, 8, 2, 1, 22, 5, 8, 21, 15, 12, 21, 7, 8, 13, 11, 10, 23, 4, 10, 11, 1, 24, 7, 23, 20, 15, 11, 1, 4, 3, 4, 20, 1, 1, 11, 9, 5, 8, 7, 13, 10, 13, 5, 1, 1, 1, 18, 11, 1, 5, 5, 3, 9, 1, 9, 5, 7, 8, 1, 6, 14, 6, 15, 10, 10, 12, 2, 13, 16, 2, 14, 1, 6, 8, 19, 11, 14, 10, 15, 7, 14, 18, 20, 11, 15, 11, 3, 6, 7, 8, 19, 3, 6, 19, 11, 8, 24, 4, 8, 7, 14, 5, 8, 16, 2, 7, 7, 10, 16, 23, 10, 21, 1, 1, 9, 7, 10, 24, 10, 15, 16, 8, 13, 6, 4, 17, 15, 3, 1, 13, 8, 18, 6, 18, 17, 13, 14, 25, 12, 20, 19, 14, 3, 14, 9, 6, 15, 4, 13, 20, 1, 12, 1, 3, 19, 2, 24, 5, 16, 1, 24, 10, 16, 23, 1, 19, 9, 1, 5, 4, 21, 9, 1, 7, 7, 11, 6, 13, 12, 22, 7, 7, 11, 3, 7, 6, 5, 21, 12, 14, 18, 11, 9, 12, 8, 14, 5, 2, 8, 2, 1, 7, 1, 4, 16, 13, 1, 18, 5, 16, 3, 21, 4, 1, 2, 18, 2, 7, 7, 7, 7, 17, 6, 11, 6, 10, 9, 9, 20, 16, 19, 9, 14, 6, 1, 18, 17, 10, 17, 13, 16, 25, 10, 1, 2, 9, 2, 8, 9, 1, 1, 11, 20, 5, 12, 1, 4, 9, 9, 13, 1, 9, 14, 34, 21, 21, 10, 14, 1, 13, 17, 1, 1, 1, 2, 5, 23, 6, 1, 4, 8, 11, 5, 16, 9, 16, 1, 16, 7, 6, 11, 12, 10, 2, 5, 2, 24, 5, 6, 3, 4, 1, 3, 7, 12, 23, 12, 18, 1, 15, 7, 12, 9, 1, 1, 15, 22, 18, 11, 9, 4, 16, 10, 1, 16, 1, 3, 3, 5, 19, 1, 5, 22, 10, 13, 8, 19, 6, 13, 4, 1, 12, 12, 11, 1, 13, 1, 1, 1, 15, 1, 10, 5, 12, 15, 17, 26, 8, 24, 15, 1, 5, 7, 8, 1, 12, 11, 9, 2, 1, 12, 10, 18, 12, 7, 3, 16, 7, 8, 14, 1, 1, 17, 5, 13, 14, 6, 17, 1, 4, 3, 1, 12, 14, 18, 14, 1, 14, 19, 10, 17, 1, 15, 20, 7, 18, 1, 2, 13, 16, 18, 1, 8, 1, 19, 20, 1, 21, 9, 9, 15, 8, 17, 19, 7, 2, 15, 22, 15, 7, 3, 19, 18, 20, 15, 6, 6, 5, 1, 12, 1, 11, 4, 6, 15, 11, 1, 11, 5, 1, 1, 9, 9, 13, 1, 12, 6, 12, 1, 8, 14, 25, 21, 10, 17, 14, 12, 15, 15, 10, 4, 2, 14, 14, 21, 9, 1, 14, 1, 4, 10, 21, 1, 13, 14, 9, 5, 7, 6, 3, 17, 9, 18, 1, 5, 9, 10, 12, 1, 4, 4, 12, 9, 18, 26, 11, 10, 12, 14, 6, 12, 8, 16, 23, 1, 1, 4, 13, 5, 9, 28, 9, 22, 1, 15, 1, 2, 1, 6, 1, 1, 7, 15, 11, 5, 4, 18, 9, 7, 12, 17, 3, 11, 4, 9, 7, 11, 1, 1, 19, 1];
Lower_Bound = [0, 17, 31, 42, 52, 53, 148, 131, 127, 141, 136, 149, 144, 165, 187, 198, 213, 233, 216, 232, 224, 237, 233, 259, 241, 255, 266, 274, 302, 318, 325, 10, 11, 28, 40, 41, 63, 133, 113, 121, 137, 123, 117, 132, 148, 149, 135, 229, 210, 206, 199, 207, 208, 230, 225, 233, 274, 267, 276, 297, 305, 318, 328, 23, 19, 30, 31, 71, 64, 84, 99, 100, 104, 107, 111, 112, 136, 125, 134, 142, 200, 187, 197, 197, 202, 203, 204, 248, 259, 264, 269, 291, 316, 317, 326, 33, 59, 54, 62, 63, 69, 83, 98, 108, 120, 122, 115, 113, 114, 120, 151, 149, 160, 174, 189, 196, 214, 221, 232, 247, 270, 267, 274, 282, 285, 348, 329, 74, 66, 70, 78, 80, 75, 91, 108, 115, 133, 143, 129, 139, 122, 123, 132, 142, 166, 181, 197, 210, 216, 220, 237, 240, 276, 268, 276, 282, 291, 304, 318, 98, 97, 77, 91, 88, 97, 93, 108, 112, 125, 145, 138, 140, 143, 130, 132, 152, 168, 189, 204, 214, 217, 218, 241, 241, 246, 250, 320, 299, 360, 329, 336, 123, 116, 118, 105, 127, 190, 183, 190, 129, 126, 132, 137, 174, 162, 148, 137, 149, 169, 183, 188, 196, 198, 233, 240, 244, 260, 330, 329, 316, 359, 343, 346, 134, 131, 130, 260, 262, 170, 172, 143, 136, 143, 153, 159, 170, 167, 157, 166, 157, 173, 185, 199, 197, 215, 232, 242, 257, 270, 286, 301, 311, 313, 322, 330, 265, 266, 256, 242, 230, 163, 159, 150, 159, 175, 174, 165, 199, 217, 196, 186, 187, 182, 201, 200, 275, 266, 264, 259, 282, 288, 292, 300, 305, 315, 331, 332, 264, 257, 251, 239, 229, 227, 198, 196, 172, 177, 183, 187, 217, 214, 210, 216, 204, 203, 202, 209, 274, 265, 266, 281, 283, 314, 303, 307, 314, 315, 331, 330, 256, 251, 250, 245, 235, 222, 203, 197, 184, 180, 192, 188, 189, 202, 203, 204, 205, 215, 227, 221, 238, 264, 272, 296, 324, 323, 324, 317, 318, 316, 325, 327, 275, 272, 262, 250, 243, 259, 266, 274, 185, 186, 187, 195, 190, 204, 210, 211, 210, 211, 242, 259, 319, 301, 287, 288, 329, 343, 332, 342, 329, 344, 326, 344, 289, 287, 271, 253, 261, 262, 248, 288, 224, 203, 212, 208, 225, 221, 223, 214, 229, 223, 226, 245, 263, 332, 317, 323, 328, 329, 341, 342, 346, 351, 356, 345, 302, 297, 271, 270, 269, 260, 247, 235, 229, 228, 220, 234, 232, 242, 245, 262, 276, 291, 306, 310, 283, 297, 311, 332, 341, 353, 352, 366, 352, 356, 357, 358, 302, 292, 278, 274, 267, 261, 264, 247, 265, 266, 275, 255, 267, 268, 272, 274, 292, 301, 312, 312, 359, 373, 383, 391, 381, 382, 371, 367, 372, 377, 386, 408, 289, 288, 273, 272, 270, 271, 273, 271, 270, 271, 278, 282, 271, 276, 280, 298, 307, 331, 324, 336, 353, 356, 367, 371, 380, 387, 384, 385, 386, 405, 406];
Upper_Bound = [0, 17, 31, 42, 52, 53, 148, 131, 127, 141, 136, 149, 144, 165, 187, 198, 213, 233, 216, 232, 224, 237, 233, 259, 241, 255, 266, 274, 302, 318, 325, 10, 11, 28, 40, 41, 63, 133, 113, 121, 137, 123, 117, 132, 148, 149, 135, 229, 210, 206, 199, 207, 208, 230, 225, 233, 274, 267, 276, 297, 305, 318, 328, 23, 19, 30, 31, 71, 64, 84, 99, 100, 104, 107, 111, 112, 136, 125, 134, 142, 200, 187, 197, 197, 202, 203, 204, 248, 259, 264, 269, 291, 316, 317, 326, 33, 59, 54, 62, 63, 69, 83, 98, 108, 120, 122, 115, 113, 114, 120, 151, 149, 160, 174, 189, 196, 214, 221, 232, 247, 270, 267, 274, 282, 285, 348, 329, 74, 66, 70, 78, 80, 75, 91, 108, 115, 133, 143, 129, 139, 122, 123, 132, 142, 166, 181, 197, 210, 216, 220, 237, 240, 276, 268, 276, 282, 291, 304, 318, 98, 97, 77, 91, 88, 97, 93, 108, 112, 125, 145, 138, 140, 143, 130, 132, 152, 168, 189, 204, 214, 217, 218, 241, 241, 246, 250, 320, 299, 360, 329, 336, 123, 116, 118, 105, 127, 190, 183, 190, 129, 126, 132, 137, 174, 162, 148, 137, 149, 169, 183, 188, 196, 198, 233, 240, 244, 260, 330, 329, 316, 359, 343, 346, 134, 131, 130, 260, 262, 170, 172, 143, 136, 143, 153, 159, 170, 167, 157, 166, 157, 173, 185, 199, 197, 215, 232, 242, 257, 270, 286, 301, 311, 313, 322, 330, 265, 266, 256, 242, 230, 163, 159, 150, 159, 175, 174, 165, 199, 217, 196, 186, 187, 182, 201, 200, 275, 266, 264, 259, 282, 288, 292, 300, 305, 315, 331, 332, 264, 257, 251, 239, 229, 227, 198, 196, 172, 177, 183, 187, 217, 214, 210, 216, 204, 203, 202, 209, 274, 265, 266, 281, 283, 314, 303, 307, 314, 315, 331, 330, 256, 251, 250, 245, 235, 222, 203, 197, 184, 180, 192, 188, 189, 202, 203, 204, 205, 215, 227, 221, 238, 264, 272, 296, 324, 323, 324, 317, 318, 316, 325, 327, 275, 272, 262, 250, 243, 259, 266, 274, 185, 186, 187, 195, 190, 204, 210, 211, 210, 211, 242, 259, 319, 301, 287, 288, 329, 343, 332, 342, 329, 344, 326, 344, 289, 287, 271, 253, 261, 262, 248, 288, 224, 203, 212, 208, 225, 221, 223, 214, 229, 223, 226, 245, 263, 332, 317, 323, 328, 329, 341, 342, 346, 351, 356, 345, 302, 297, 271, 270, 269, 260, 247, 235, 229, 228, 220, 234, 232, 242, 245, 262, 276, 291, 306, 310, 283, 297, 311, 332, 341, 353, 352, 366, 352, 356, 357, 358, 302, 292, 278, 274, 267, 261, 264, 247, 265, 266, 275, 255, 267, 268, 272, 274, 292, 301, 312, 312, 359, 373, 383, 391, 381, 382, 371, 367, 372, 377, 386, 408, 289, 288, 273, 272, 270, 271, 273, 271, 270, 271, 278, 282, 271, 276, 280, 298, 307, 331, 324, 336, 353, 356, 367, 371, 380, 387, 384, 385, 386, 405, 406];
Start = 1;
End = 510;
Time = 406;
